(set-info :status unsat) ; swine result
(set-logic ALL)
(declare-fun i1 () Int)
(declare-fun it199 () Int)
(declare-fun it200 () Int)
(declare-fun it135 () Int)
(declare-fun it201 () Int)
(declare-fun it202 () Int)
(declare-fun it203 () Int)
(declare-fun it204 () Int)
(declare-fun it205 () Int)
(declare-fun it214 () Int)
(declare-fun it215 () Int)
(declare-fun it216 () Int)
(declare-fun it217 () Int)
(declare-fun it218 () Int)
(declare-fun it219 () Int)
(declare-fun it220 () Int)
(declare-fun it221 () Int)
(declare-fun it223 () Int)
(declare-fun it224 () Int)
(declare-fun it225 () Int)
(declare-fun it226 () Int)
(declare-fun it227 () Int)
(declare-fun it228 () Int)
(declare-fun it229 () Int)
(declare-fun it237 () Int)
(declare-fun it238 () Int)
(declare-fun it239 () Int)
(declare-fun it240 () Int)
(declare-fun it241 () Int)
(declare-fun it242 () Int)
(declare-fun it243 () Int)
(declare-fun it244 () Int)
(declare-fun it253 () Int)
(declare-fun it254 () Int)
(declare-fun it255 () Int)
(declare-fun it256 () Int)
(declare-fun it257 () Int)
(declare-fun it258 () Int)
(declare-fun it259 () Int)
(declare-fun it260 () Int)
(declare-fun it262 () Int)
(declare-fun it263 () Int)
(declare-fun it264 () Int)
(declare-fun it265 () Int)
(declare-fun it266 () Int)
(declare-fun it267 () Int)
(declare-fun it268 () Int)
(declare-fun it276 () Int)
(declare-fun it277 () Int)
(declare-fun it278 () Int)
(declare-fun it279 () Int)
(declare-fun it280 () Int)
(declare-fun it281 () Int)
(declare-fun it282 () Int)
(declare-fun it283 () Int)
(declare-fun it286 () Int)
(declare-fun it287 () Int)
(declare-fun it288 () Int)
(declare-fun it289 () Int)
(declare-fun it290 () Int)
(declare-fun it165 () Int)
(declare-fun it291 () Int)
(declare-fun it166 () Int)
(declare-fun it292 () Int)
(declare-fun it304 () Int)
(declare-fun it307 () Int)
(declare-fun it308 () Int)
(declare-fun it309 () Int)
(declare-fun it310 () Int)
(declare-fun it311 () Int)
(declare-fun it312 () Int)
(declare-fun it177 () Int)
(declare-fun it313 () Int)
(declare-fun it178 () Int)
(declare-fun it326 () Int)
(declare-fun it329 () Int)
(declare-fun it330 () Int)
(declare-fun it331 () Int)
(declare-fun it332 () Int)
(declare-fun it333 () Int)
(declare-fun it181 () Int)
(declare-fun it334 () Int)
(declare-fun it335 () Int)
(declare-fun it182 () Int)
(assert (= (+ i1 (- 1)) 0))
(assert (= (+ it199 (- 4)) 0))
(assert (= (+ it200 (- 1)) 0))
(assert (= (+ it201 (* it135 (- 1))) 0))
(assert (= (+ it202 (- 1)) 0))
(assert (= (+ it203 (- 1)) 0))
(assert (= (+ it204 (* it135 (- 1))) 0))
(assert (= (+ it205 (- 1)) 0))
(assert (and (>= (+ (* it203 (- 1)) it204 (* it214 (- 1)) 1) 0)
     (>= (+ it199 (- 4)) 0)
     (>= (+ (* it200 (- 1)) it201 (* it214 (- 1)) 1) 0)
     (>= (+ (* it199 (- 1)) 4) 0)
     (>= (+ it214 (- 1)) 0)))
(assert (= (+ (* it199 (- 1)) it215) 0))
(assert (= (+ (* it200 (- 1)) it216 (* it214 (- 1))) 0))
(assert (= (+ (* it201 (- 1)) it217) 0))
(assert (= (+ (* it202 (- 1)) it218) 0))
(assert (= (+ (* it203 (- 1)) it219 (* it214 (- 1))) 0))
(assert (= (+ (* it204 (- 1)) it220) 0))
(assert (= (+ (* it205 (- 1)) it221) 0))
(assert (and (= (+ it215 (- 4)) 0)
     (> (+ it219 (* it220 (- 1))) 0)
     (> (+ it216 (* it217 (- 1))) 0)))
(assert (= (+ it223 (- 5)) 0))
(assert (= it224 0))
(assert (= (+ it225 (* it217 (- 1))) 0))
(assert (= (+ it226 (* it218 (- 1))) 0))
(assert (= (+ it227 (- 1)) 0))
(assert (= (+ (* it220 (- 1)) it228) 0))
(assert (= (+ it229 (* it221 (- 1))) 0))
(assert (and (>= (+ it225 (* it237 (- 1)) (* it224 (- 1)) 1) 0)
     (>= (+ it223 (- 5)) 0)
     (>= (+ (* it237 (- 1)) (* it227 (- 1)) it228 1) 0)
     (>= (+ (* it223 (- 1)) 5) 0)
     (>= (+ it237 (- 1)) 0)))
(assert (= (+ it238 (* it223 (- 1))) 0))
(assert (= (+ (* it237 (- 1)) it239 (* it224 (- 1))) 0))
(assert (= (+ (* it225 (- 1)) it240) 0))
(assert (= (+ (* (exp it237 2) (+ 0 (- 1)))
      (+ 0 (* it241 2))
      (+ 0 it237)
      (+ 0 (* it226 (- 2)))
      (+ 0 (* it237 it224 (- 2))))
   (+ 0 0)))
(assert (= (+ (* it237 (- 1)) it242 (* it227 (- 1))) 0))
(assert (= (+ it243 (* it228 (- 1))) 0))
(assert (= (+ (+ 0 (* it244 2))
      (* (exp it237 2) (+ 0 (- 1)))
      (+ 0 (* it229 (- 2)))
      (+ 0 it237)
      (+ 0 (* it237 it227 (- 2))))
   (+ 0 0)))
(assert (and (>= (+ (* it239 (- 1)) it240 (* it253 (- 1)) 1) 0)
     (>= (+ it253 (- 1)) 0)
     (>= (+ (* it238 (- 1)) 5) 0)
     (>= (+ it238 (- 5)) 0)
     (> (+ it242 (* it243 (- 1))) 0)))
(assert (= (+ it254 (* it238 (- 1))) 0))
(assert (= (+ it255 (* it239 (- 1)) (* it253 (- 1))) 0))
(assert (= (+ it256 (* it240 (- 1))) 0))
(assert (= (+ (* (exp it253 2) (+ 0 (- 1)))
      (+ 0 (* it239 it253 (- 2)))
      (+ 0 (* it241 (- 2)))
      (+ 0 it253)
      (+ 0 (* it257 2)))
   (+ 0 0)))
(assert (= (+ it258 (* it242 (- 1))) 0))
(assert (= (+ it259 (* it243 (- 1))) 0))
(assert (= (+ (* it244 (- 1)) it260) 0))
(assert (and (> (+ it255 (* it256 (- 1))) 0)
     (= (+ it254 (- 5)) 0)
     (> (+ it258 (* it259 (- 1))) 0)))
(assert (= (+ it262 (- 3)) 0))
(assert (= (+ it263 (- 1)) 0))
(assert (= (+ it264 (* it256 (- 1))) 0))
(assert (= (+ it265 (* it257 (- 1))) 0))
(assert (= (+ it266 (- 1)) 0))
(assert (= (+ it267 (* it259 (- 1))) 0))
(assert (= (+ it268 (* it260 (- 1))) 0))
(assert (and (>= (+ it264 (* it263 (- 1)) (* it276 (- 1)) 1) 0)
     (>= (+ (* it262 (- 1)) 3) 0)
     (>= (+ it267 (* it266 (- 1)) (* it276 (- 1)) 1) 0)
     (>= (+ it262 (- 3)) 0)
     (>= (+ it276 (- 1)) 0)))
(assert (= (+ it277 (* it262 (- 1))) 0))
(assert (= (+ it278 (* it263 (- 1)) (* it276 (- 1))) 0))
(assert (= (+ it279 (* it264 (- 1))) 0))
(assert (= (+ (* (+ 0 it265) (exp 2 it276) (+ 0 (- 1))) (+ 0 it280))
   (+ 0 0)))
(assert (= (+ it281 (* it266 (- 1)) (* it276 (- 1))) 0))
(assert (= (+ it282 (* it267 (- 1))) 0))
(assert (= (+ (* (+ 0 it268) (exp 2 it276) (+ 0 (- 1))) (+ 0 it283))
   (+ 0 0)))
(assert (and (> (+ (* it282 (- 1)) it281) 0)
     (> (+ (* it279 (- 1)) it278) 0)
     (= (+ it277 (- 3)) 0)))
(assert (= (+ it286 (- 2)) 0))
(assert (= (+ (* it279 (- 1)) it287) 0))
(assert (= (+ it288 (* it280 (- 1))) 0))
(assert (= (+ (* it282 (- 1)) it289) 0))
(assert (= (+ (* it283 (- 1)) it290) 0))
(assert (= (+ it291 (* it165 (- 1))) 0))
(assert (= (+ it292 (* it166 (- 1))) 0))
(assert (and (>= (+ (* it286 (- 1)) 2) 0)
     (>= (+ it286 (- 2)) 0)
     (>= (+ (* it304 (- 1)) it287 1) 0)
     (>= it287 0)
     (> it289 0)
     (> (+ it289 (* it304 (- 1)) 1) 0)
     (>= (+ it304 (- 1)) 0)))
(assert (= (+ (* it286 (- 1)) it307) 0))
(assert (= (+ it308 it304 (* it287 (- 1))) 0))
(assert (= (+ (exp it304 2)
      (+ 0 (* it288 (- 2)))
      (+ 0 (* it304 it287 (- 2)))
      (+ 0 (* it309 2))
      (+ 0 (* it304 (- 1))))
   (+ 0 0)))
(assert (= (+ (* it289 (- 1)) it310 it304) 0))
(assert (let ((a!1 (+ (+ 0 (+ (* it289 it304 (- 2)) (* it311 2)))
              (exp it304 2)
              (+ 0 (* it304 (- 1)))
              (+ 0 (* it290 (- 2))))))
  (= a!1 (+ 0 0))))
(assert (= (+ (* it177 (- 1)) it312) 0))
(assert (= (+ (* it178 (- 1)) it313) 0))
(assert (and (>= (+ it307 (- 2)) 0)
     (>= (* it310 (- 1)) 0)
     (>= (+ (* it307 (- 1)) 2) 0)
     (>= it308 0)
     (>= (+ it326 (- 1)) 0)
     (>= (+ it308 (* it326 (- 1)) 1) 0)))
(assert (= (+ it329 (* it307 (- 1))) 0))
(assert (= (+ (* it308 (- 1)) it326 it330) 0))
(assert (let ((a!1 (+ (+ 0 (+ (* it326 (- 1))
                          (* it331 2)
                          (* it309 (- 2))
                          (* it308 it326 (- 2))))
              (exp it326 2))))
  (= a!1 (+ 0 0))))
(assert (= (+ it332 (* it310 (- 1))) 0))
(assert (= (+ (* it311 (- 1)) it333) 0))
(assert (= (+ it334 (* it181 (- 1))) 0))
(assert (= (+ (* it182 (- 1)) it335) 0))
(assert (let ((a!1 (or (< (+ it331 (* it333 (- 1))) 0) (> (+ it331 (* it333 (- 1))) 0))))
  (and (< it330 0) (= (+ it329 (- 2)) 0) a!1 (<= it332 0))))
(check-sat)
